500
1000
495
492
492
491
491
490
490
490
489
488
487
486
486
486
485
484
481
480
480
480
479
479
478
476
475
475
473
473
471
471
471
470
470
468
468
468
467
467
465
464
463
463
462
461
460
459
459
458
458
458
456
452
452
451
450
450
448
447
447
447
447
446
446
446
445
445
443
443
442
442
441
441
441
440
439
438
438
438
438
437
436
436
435
435
434
434
432
432
432
432
430
430
429
429
429
428
428
427
426
425
424
423
423
423
422
421
419
419
418
418
417
417
416
414
413
413
413
413
412
411
410
409
409
408
406
406
405
404
404
404
403
402
400
398
398
398
397
397
397
395
394
393
393
392
392
392
390
389
389
389
389
385
385
385
385
385
384
383
383
383
381
381
379
379
377
377
376
375
375
375
375
374
373
372
371
371
370
369
369
369
369
369
366
366
366
365
364
364
364
363
363
362
362
361
361
361
360
359
357
356
356
356
356
356
355
353
353
353
352
352
351
351
349
349
348
348
347
347
347
346
346
346
345
344
343
343
342
340
340
340
339
338
337
337
336
335
333
333
333
332
332
330
330
330
329
329
329
327
326
326
324
324
322
322
321
321
321
320
320
319
319
319
318
318
318
318
318
317
317
316
314
313
312
312
310
310
310
309
308
308
308
306
306
306
306
305
305
304
302
301
301
300
299
298
298
296
295
295
293
293
293
293
293
292
292
292
291
291
290
290
289
288
288
288
286
285
285
285
285
284
284
284
283
281
281
280
280
280
278
278
277
277
276
276
276
275
274
274
273
271
271
270
270
270
269
268
268
268
267
266
266
265
264
263
262
262
262
262
261
261
260
260
260
260
259
258
258
256
256
255
254
253
252
251
251
249
248
247
246
246
246
246
246
245
245
245
245
244
244
244
244
243
243
243
242
242
240
240
239
239
239
238
238
236
235
235
235
234
234
234
233
233
233
232
231
229
228
228
228
227
226
226
225
222
222
219
219
218
218
217
216
216
215
215
215
213
212
212
212
211
211
210
210
209
209
208
208
207
207
206
206
205
204
203
202
201
200
200
200
200
198
197
197
196
195
193
192
191
191
190
189
189
189
189
189
188
188
187
186
185
185
181
181
180
180
177
176
176
174
174
172
172
171
170
169
169
169
168
167
167
